000 000 000 000 000 000 000 000 -99 -99 -99 -99 -99 000 000 -99 -99 -99 000 000 000 000 000 000 000 -99 -99 -99 -99 -99 -99
000 000 000 000 000 000 000 000 -99 -99 -99 -99 -99 -99 000 000 -99 000 -99 000 -99 000 000 000 -99 -99 -99 -99 -99 -99 -99
000 000 000 000 000 000 000 000 000 -99 -99 -99 -99 -99 000 000 000 000 -99 -99 -99 000 000 000 -99 -99 -99 -99 -99 -99 -99
000 000 000 000 000 000 000 000 000 000 -99 -99 000 -99 000 000 -99 -99 -99 -99 000 000 000 000 000 -99 -99 -99 -99 -99 -99
000 000 000 000 000 000 000 000 000 000 -99 -99 000 000 000 000 -99 -99 -99 -99 000 000 000 000 000 000 -99 -99 -99 -99 -99
000 000 000 000 000 000 000 000 000 000 -99 -99 000 000 000 000 -99 -99 -99 -99 -99 000 000 000 000 000 -99 -99 -99 -99 -99
000 000 000 000 000 -99 000 000 000 000 -99 -99 000 000 000 000 000 000 -99 -99 000 000 000 000 000 000 -99 -99 -99 -99 -99
000 000 000 000 000 000 000 000 000 -99 -99 -99 -99 -99 -99 000 000 000 -99 -99 000 000 000 000 000 -99 -99 -99 -99 000 -99
000 000 000 000 000 000 000 000 000 000 000 000 -99 -99 -99 -99 000 000 000 -99 000 -99 -99 -99 -99 -99 -99 -99 -99 000 000
000 000 000 000 000 000 000 000 000 000 000 000 -99 -99 -99 -99 000 000 000 -99 000 000 -99 -99 000 -99 -99 -99 -99 -99 000
000 000 000 000 000 000 000 000 000 000 000 000 000 -99 -99 -99 -99 000 000 -99 000 000 -99 -99 000 -99 -99 -99 -99 000 000
000 000 000 000 000 000 000 000 000 000 000 000 -99 -99 -99 -99 000 000 000 -99 000 000 -99 -99 000 -99 -99 -99 -99 000 000
000 000 000 000 000 000 000 000 -99 -99 000 000 -99 -99 -99 -99 000 000 000 000 -99 000 -99 000 000 000 -99 000 000 -99 006
000 000 000 000 000 000 000 000 -99 -99 -99 000 -99 -99 -99 000 000 000 000 -99 -99 000 -99 000 000 000 000 000 -99 -99 012
000 -99 000 000 000 000 000 -99 -99 -99 -99 -99 -99 000 -99 000 000 -99 000 000 -99 000 -99 000 000 000 000 000 000 000 009
000 -99 000 000 000 000 000 000 000 -99 -99 -99 -99 000 000 -99 -99 -99 -99 -99 -99 000 -99 000 000 000 000 000 000 000 001
000 -99 000 000 000 000 000 000 000 -99 -99 -99 000 000 000 -99 000 000 000 -99 -99 -99 000 000 000 000 -99 000 000 000 000
000 000 000 -99 -99 000 000 000 000 -99 -99 -99 -99 000 000 000 000 000 -99 -99 -99 -99 000 -99 000 000 -99 -99 000 000 000
000 000 000 000 -99 -99 000 000 000 -99 -99 -99 -99 000 000 000 000 000 000 -99 -99 000 000 -99 000 -99 -99 -99 -99 000 -99
000 000 000 000 000 000 -99 000 -99 -99 000 -99 -99 -99 -99 000 000 000 000 -99 -99 000 000 -99 -99 -99 -99 -99 -99 -99 -99
000 000 000 000 000 -99 -99 000 -99 000 000 000 000 000 -99 000 000 -99 000 -99 000 000 -99 -99 -99 -99 -99 -99 -99 -99 -99
000 -99 000 -99 000 -99 -99 -99 -99 000 000 000 000 000 -99 000 -99 -99 000 -99 000 000 000 -99 -99 -99 -99 -99 -99 -99 -99
-99 -99 000 000 000 000 -99 -99 -99 000 000 000 000 000 -99 -99 -99 -99 000 -99 -99 000 000 -99 -99 -99 -99 -99 -99 -99 -99
000 000 000 000 000 000 -99 -99 000 000 -99 -99 000 -99 -99 -99 000 000 000 -99 -99 000 000 -99 -99 -99 -99 -99 -99 -99 -99
000 000 000 000 000 000 000 000 000 000 -99 -99 -99 -99 -99 -99 000 000 -99 -99 -99 000 -99 -99 -99 -99 -99 -99 -99 -99 -99
000 000 000 000 000 000 000 000 000 000 -99 -99 -99 -99 000 -99 000 000 -99 -99 -99 -99 -99 -99 -99 -99 -99 -99 -99 -99 000
000 000 000 000 000 000 000 000 000 000 000 -99 -99 000 000 -99 -99 000 -99 -99 -99 -99 -99 -99 -99 -99 -99 -99 -99 -99 000
-99 000 000 000 000 000 -99 000 000 000 000 -99 000 000 -99 -99 -99 -99 -99 000 000 -99 -99 -99 -99 -99 -99 -99 -99 -99 000
-99 000 000 000 000 000 -99 000 000 000 000 -99 000 000 000 -99 -99 -99 -99 000 000 -99 -99 -99 -99 -99 -99 -99 -99 -99 -99
000 000 000 000 000 000 -99 000 000 000 000 -99 000 000 000 000 -99 -99 000 000 000 -99 -99 -99 -99 -99 -99 -99 -99 -99 -99
000 000 000 000 000 -99 000 -99 000 000 -99 -99 -99 000 000 -99 -99 -99 000 000 000 -99 -99 000 000 -99 -99 -99 -99 -99 -99
000 000 000 000 000 000 -99 -99 000 000 -99 -99 -99 000 -99 -99 000 000 000 000 -99 -99 000 000 000 -99 -99 -99 -99 -99 -99
000 000 000 000 000 000 -99 -99 000 000 -99 -99 000 -99 -99 -99 000 000 000 -99 -99 -99 000 000 000 -99 -99 000 000 -99 000
000 000 000 000 000 000 000 000 000 000 000 -99 -99 -99 -99 -99 -99 -99 -99 000 -99 -99 000 000 000 000 000 000 000 000 000
000 000 000 000 000 000 000 000 000 000 000 000 000 000 -99 -99 -99 -99 -99 000 000 -99 -99 000 000 000 000 000 000 000 000
000 000 000 000 000 000 000 000 000 000 000 000 000 000 -99 000 -99 -99 000 000 000 000 -99 000 000 000 000 000 000 000 -99
000 000 000 000 000 -99 000 000 000 000 000 000 000 000 000 000 000 000 000 000 000 000 000 000 000 000 000 000 000 000 -99
000 000 000 000 -99 000 000 000 000 000 -99 000 -99 000 000 000 000 000 000 000 000 -99 -99 000 000 000 000 000 -99 000 -99
000 000 000 -99 000 000 000 000 -99 -99 -99 -99 000 000 000 000 000 000 -99 000 000 -99 -99 000 000 000 000 000 -99 -99 -99
000 000 000 000 000 000 -99 000 -99 -99 -99 -99 000 000 000 000 000 000 -99 000 000 -99 -99 000 000 000 000 000 -99 -99 -99
000 000 000 000 000 000 -99 -99 -99 000 000 000 000 000 000 000 000 000 000 000 -99 -99 -99 -99 000 000 000 000 -99 -99 -99
000 000 -99 -99 -99 -99 000 -99 000 000 000 000 000 000 -99 000 000 000 000 -99 -99 -99 -99 -99 000 000 -99 -99 -99 -99 -99
000 000 -99 -99 -99 000 000 -99 000 000 000 000 000 000 000 000 000 000 000 -99 -99 -99 -99 000 000 000 -99 -99 -99 -99 -99
000 -99 -99 -99 -99 000 000 -99 -99 000 000 000 000 000 000 000 000 000 000 000 000 -99 -99 -99 000 000 -99 -99 -99 -99 -99
-99 -99 -99 -99 -99 000 000 -99 -99 000 000 000 000 000 000 -99 000 000 000 000 000 -99 -99 000 000 -99 -99 -99 -99 -99 -99
000 -99 -99 -99 -99 -99 -99 -99 -99 000 000 000 000 000 000 -99 000 000 000 000 000 -99 -99 000 000 000 000 000 -99 -99 -99
000 -99 -99 -99 -99 -99 -99 -99 -99 -99 000 000 000 000 -99 -99 -99 -99 000 000 000 000 000 000 000 000 000 -99 -99 -99 -99
-99 -99 -99 -99 -99 -99 -99 -99 -99 -99 -99 -99 000 -99 -99 -99 -99 000 000 000 000 000 000 000 000 000 -99 -99 -99 -99 -99
-99 -99 -99 -99 -99 -99 -99 -99 -99 -99 -99 -99 000 -99 -99 -99 -99 000 000 000 000 000 000 000 000 000 -99 -99 -99 -99 -99
-99 -99 -99 -99 -99 -99 -99 -99 -99 -99 -99 000 -99 -99 -99 -99 000 000 000 -99 000 000 000 000 001 -99 -99 -99 -99 -99 -99
-99 -99 -99 -99 -99 -99 -99 -99 -99 -99 -99 -99 000 -99 -99 -99 000 000 -99 -99 -99 000 -99 002 004 -99 -99 -99 -99 -99 -99
-99 -99 -99 -99 -99 -99 -99 -99 -99 -99 -99 -99 000 000 -99 -99 -99 000 -99 -99 000 -99 004 004 004 -99 -99 -99 -99 -99 -99
-99 -99 -99 -99 -99 -99 -99 -99 -99 -99 -99 -99 -99 -99 -99 -99 -99 -99 -99 -99 -99 -99 -99 -99 -99 -99 -99 -99 -99 -99 -99
-99 -99 -99 -99 -99 -99 -99 -99 -99 -99 -99 -99 -99 -99 000 -99 -99 -99 -99 -99 -99 -99 -99 -99 -99 -99 -99 -99 -99 -99 -99
-99 -99 -99 -99 -99 -99 -99 -99 -99 -99 -99 -99 -99 000 000 -99 -99 -99 -99 -99 -99 -99 -99 -99 -99 -99 -99 -99 -99 -99 -99
